n_boats=80;
n_periods=20;
capacity=[9,19,6,7,6,3,7,19,12,13,19,14,17,11,5,12,8,12,14,9,3,2,18,1,6,1,10,10,11,6,2,17,4,9,13,11,2,7,1,11,3,13,10,8,1,4,19,3,9,17,9,16,13,12,11,19,16,2,10,13,6,7,18,12,10,2,19,5,5,12,8,6,11,3,11,15,12,17,8,4];
crew=[9,16,1,4,6,1,5,4,1,8,8,1,8,10,5,4,1,2,4,5,2,1,10,1,4,1,6,3,7,3,2,5,4,7,9,9,2,5,1,7,3,5,9,6,1,3,11,3,4,12,2,3,1,10,2,16,13,1,6,6,4,7,17,6,10,2,5,4,4,4,6,1,11,3,11,14,8,7,4,4];
